
  32    1
  10

   0   0   4 2 3 4 11 
   2   5   2 8 5 
   9   6   2 7 6 
   1   9   2 9 7 
  10  10   1 6 
   9  10   4 15 13 10 9 
   2  10   5 17 15 13 12 10 
   5   8   5 18 17 13 12 10 
   4   6   4 21 18 17 12 
   6   7   4 24 21 16 14 
   6  10   4 24 21 17 15 
   4   8   3 24 22 16 
   1   6   3 24 22 16 
   6   8   2 22 19 
   1   7   2 22 19 
   2   4   1 19 
   4   7   1 19 
   4  10   1 19 
  10  10   2 23 20 
   2   8   4 30 27 26 25 
   8  10   1 22 
   8   8   3 30 26 25 
   2   3   3 30 27 25 
   7  10   3 31 30 25 
  10  10   2 29 28 
   9  10   2 31 29 
   2   8   1 28 
   5   7   1 32
  10   7   1 32
   2  10   1 32
   1   8   1 32
   0   0   0 
